c generated by sgen
p cnf 113 236
-2 -3 -4 0
-1 -3 -4 0
-1 -2 -4 0
-1 -2 -3 0
-6 -7 -8 0
-5 -7 -8 0
-5 -6 -8 0
-5 -6 -7 0
-10 -11 -12 0
-9 -11 -12 0
-9 -10 -12 0
-9 -10 -11 0
-14 -15 -16 0
-13 -15 -16 0
-13 -14 -16 0
-13 -14 -15 0
-18 -19 -20 0
-17 -19 -20 0
-17 -18 -20 0
-17 -18 -19 0
-22 -23 -24 0
-21 -23 -24 0
-21 -22 -24 0
-21 -22 -23 0
-26 -27 -28 0
-25 -27 -28 0
-25 -26 -28 0
-25 -26 -27 0
-30 -31 -32 0
-29 -31 -32 0
-29 -30 -32 0
-29 -30 -31 0
-34 -35 -36 0
-33 -35 -36 0
-33 -34 -36 0
-33 -34 -35 0
-38 -39 -40 0
-37 -39 -40 0
-37 -38 -40 0
-37 -38 -39 0
-42 -43 -44 0
-41 -43 -44 0
-41 -42 -44 0
-41 -42 -43 0
-46 -47 -48 0
-45 -47 -48 0
-45 -46 -48 0
-45 -46 -47 0
-50 -51 -52 0
-49 -51 -52 0
-49 -50 -52 0
-49 -50 -51 0
-54 -55 -56 0
-53 -55 -56 0
-53 -54 -56 0
-53 -54 -55 0
-58 -59 -60 0
-57 -59 -60 0
-57 -58 -60 0
-57 -58 -59 0
-62 -63 -64 0
-61 -63 -64 0
-61 -62 -64 0
-61 -62 -63 0
-66 -67 -68 0
-65 -67 -68 0
-65 -66 -68 0
-65 -66 -67 0
-70 -71 -72 0
-69 -71 -72 0
-69 -70 -72 0
-69 -70 -71 0
-74 -75 -76 0
-73 -75 -76 0
-73 -74 -76 0
-73 -74 -75 0
-78 -79 -80 0
-77 -79 -80 0
-77 -78 -80 0
-77 -78 -79 0
-82 -83 -84 0
-81 -83 -84 0
-81 -82 -84 0
-81 -82 -83 0
-86 -87 -88 0
-85 -87 -88 0
-85 -86 -88 0
-85 -86 -87 0
-90 -91 -92 0
-89 -91 -92 0
-89 -90 -92 0
-89 -90 -91 0
-94 -95 -96 0
-93 -95 -96 0
-93 -94 -96 0
-93 -94 -95 0
-98 -99 -100 0
-97 -99 -100 0
-97 -98 -100 0
-97 -98 -99 0
-102 -103 -104 0
-101 -103 -104 0
-101 -102 -104 0
-101 -102 -103 0
-106 -107 -108 0
-105 -107 -108 0
-105 -106 -108 0
-105 -106 -107 0
-109 -110 -111 0
-109 -110 -112 0
-109 -110 -113 0
-109 -111 -112 0
-109 -111 -113 0
-109 -112 -113 0
-110 -111 -112 0
-110 -111 -113 0
-110 -112 -113 0
-111 -112 -113 0
68 43 10 0
34 43 10 0
34 68 10 0
34 68 43 0
63 67 40 0
94 67 40 0
94 63 40 0
94 63 67 0
57 26 85 0
83 26 85 0
83 57 85 0
83 57 26 0
52 36 29 0
19 36 29 0
19 52 29 0
19 52 36 0
77 9 88 0
101 9 88 0
101 77 88 0
101 77 9 0
53 111 96 0
86 111 96 0
86 53 96 0
86 53 111 0
7 73 23 0
65 73 23 0
65 7 23 0
65 7 73 0
90 55 70 0
60 55 70 0
60 90 70 0
60 90 55 0
31 1 75 0
81 1 75 0
81 31 75 0
81 31 1 0
35 56 79 0
105 56 79 0
105 35 79 0
105 35 56 0
113 98 76 0
50 98 76 0
50 113 76 0
50 113 98 0
66 71 3 0
27 71 3 0
27 66 3 0
27 66 71 0
89 4 39 0
18 4 39 0
18 89 39 0
18 89 4 0
64 74 41 0
87 74 41 0
87 64 41 0
87 64 74 0
46 80 62 0
20 80 62 0
20 46 62 0
20 46 80 0
47 93 92 0
15 93 92 0
15 47 92 0
15 47 93 0
45 37 112 0
103 37 112 0
103 45 112 0
103 45 37 0
104 97 44 0
95 97 44 0
95 104 44 0
95 104 97 0
109 107 5 0
91 107 5 0
91 109 5 0
91 109 107 0
78 51 38 0
28 51 38 0
28 78 38 0
28 78 51 0
11 6 32 0
99 6 32 0
99 11 32 0
99 11 6 0
102 49 72 0
106 49 72 0
106 102 72 0
106 102 49 0
69 22 30 0
42 22 30 0
42 69 30 0
42 69 22 0
48 82 8 0
54 82 8 0
54 48 8 0
54 48 82 0
2 24 33 0
59 24 33 0
59 2 33 0
59 2 24 0
14 58 17 0
100 58 17 0
100 14 17 0
100 14 58 0
108 16 25 0
21 16 25 0
21 108 25 0
21 108 16 0
110 61 84 0
110 61 13 0
110 61 12 0
110 84 13 0
110 84 12 0
110 13 12 0
61 84 13 0
61 84 12 0
61 13 12 0
84 13 12 0
